Version identifier: 22.1.1.0 | 2022-11-28 | 9160aff4d
CPXPARAM_ClockType                               1
CPXPARAM_Read_DataCheck                          1
CPXPARAM_Threads                                 1
CPXPARAM_TimeLimit                               7200
CPXPARAM_MIP_Tolerances_AbsMIPGap                0
CPXPARAM_MIP_Tolerances_MIPGap                   0
CPXPARAM_MIP_Tolerances_Integrality              0
Tried aggregator 2 times.
MIP Presolve eliminated 3000 rows and 0 columns.
MIP Presolve modified 6000 coefficients.
Aggregator did 3000 substitutions.
Reduced MIP has 25250 rows, 11000 columns, and 80750 nonzeros.
Reduced MIP has 11000 binaries, 0 generals, 0 SOSs, and 0 indicators.
Presolve time = 0.11 sec. (59.42 ticks)
Probing time = 0.02 sec. (4.84 ticks)
Tried aggregator 1 time.
Detecting symmetries...
Reduced MIP has 25250 rows, 11000 columns, and 80750 nonzeros.
Reduced MIP has 11000 binaries, 0 generals, 0 SOSs, and 0 indicators.
Presolve time = 0.10 sec. (50.68 ticks)
Probing time = 0.01 sec. (4.84 ticks)
Clique table members: 1000.
MIP emphasis: balance optimality and feasibility.
MIP search method: dynamic search.
Parallel mode: none, using 1 thread.
Root relaxation solution time = 99.84 sec. (51178.92 ticks)

        Nodes                                         Cuts/
   Node  Left     Objective  IInf  Best Integer    Best Bound    ItCnt     Gap

      0     0     6941.0000  6525                   6941.0000    90291         
      0     0     6000.0000  5339                  Cuts: 1010   242610         
      0     0     6000.0000  5519                ZeroHalf: 23   413029         
      0     0     6000.0000  5255                 ZeroHalf: 1   568560         
      0     0     6000.0000  5242                ZeroHalf: 28   716244         
      0     0     6000.0000  5236                ZeroHalf: 23   871127         
      0     0     6000.0000  5189                ZeroHalf: 22  1021246         
      0     0     6000.0000  5201                ZeroHalf: 30  1172679         
Heuristic still looking.
Heuristic still looking.
      0     2     6000.0000  5201                   6000.0000  1172679         
Elapsed time = 5621.18 sec. (3480136.93 ticks, tree = 0.01 MB, solutions = 0)
      1     3     6000.0000  5096                   6000.0000  1414647         
      2     4     6000.0000  5087                   6000.0000  1535498         
      3     5     6000.0000  5208                   6000.0000  1683481         
      4     6     6000.0000  5129                   6000.0000  1683876         
      5     7     6000.0000  5160                   6000.0000  1686097         
      6     8     6000.0000  5166                   6000.0000  1694929         
      7     9     6000.0000  5187                   6000.0000  1695491         
      8    10     6000.0000  5185                   6000.0000  1695725         
      9    11     6000.0000  5195                   6000.0000  1696684         
     10    12     6000.0000  5180                   6000.0000  1696804         
Elapsed time = 7124.95 sec. (4384792.66 ticks, tree = 0.07 MB, solutions = 0)
     12    14     6000.0000  5200                   6000.0000  1697474         
     14    16     6000.0000  5201                   6000.0000  1698393         
     15    17     6000.0000  5205                   6000.0000  1699041         
     16    18     6000.0000  5203                   6000.0000  1701387         
     18    20     6000.0000  5186                   6000.0000  1701929         
     19    21     6000.0000  5211                   6000.0000  1702552         
     20    22     6000.0000  5220                   6000.0000  1702990         
     21    23     6000.0000  5262                   6000.0000  1704086         
     22    24     6000.0000  5238                   6000.0000  1704548         
     24    26     6000.0000  5239                   6000.0000  1705095         
Elapsed time = 7147.85 sec. (4399019.09 ticks, tree = 0.14 MB, solutions = 0)
     25    27     6000.0000  5260                   6000.0000  1705528         
     26    28     6000.0000  5250                   6000.0000  1706376         
     28    30     6000.0000  5244                   6000.0000  1707040         
     29    31     6000.0000  5228                   6000.0000  1708248         
     31    33     6000.0000  5232                   6000.0000  1708831         
     32    34     6000.0000  5255                   6000.0000  1709493         
     34    36     6000.0000  5240                   6000.0000  1710223         
     35    37     6000.0000  5266                   6000.0000  1711802         
     38    40     6000.0000  5232                   6000.0000  1712557         

Zero-half cuts applied:  1002

Root node processing (before b&c):
  Real time             = 5621.16 sec. (3480131.60 ticks)
Sequential b&c:
  Real time             = 1578.89 sec. (952813.89 ticks)
                          ------------
Total (root+branch&cut) = 7200.05 sec. (4432945.49 ticks)
Solution is infeasible.

---------------------
@@@ MIP_time_limit_infeasible
Traceback (most recent call last):
  File "/scratch/scherif/DiverseSAT-journal_sup/DiverseSAT_Supplementary_Experiments/experiment-1/cplex/jobs/../solvers/CPLEX-BIN.py", line 132, in <module>
    print(f">>> Benchmark {os.path.basename(cnf_file)} k {k} OPT {int(prob.solution.get_objective_value())}"
  File "/users/scherif/.local/lib/python3.9/site-packages/cplex/_internal/_subinterfaces.py", line 7211, in get_objective_value
    return CPX_PROC.getobjval(self._env._e, self._cplex._lp)
  File "/users/scherif/.local/lib/python3.9/site-packages/cplex/_internal/_procedural.py", line 2055, in getobjval
    check_status(env, status)
  File "/users/scherif/.local/lib/python3.9/site-packages/cplex/_internal/_procedural.py", line 249, in __call__
    raise CplexSolverError(error_string, env, status)
cplex.exceptions.errors.CplexSolverError: CPLEX Error  1217: No solution exists.
